4085
7774
7920
7983
8021
8059
8100
8147
8179
8202
8227
8242
8242
8242
8242
8242
8242
8242
8242
8242
8242
8242
8242
8242
8242
8242
8242
8242
8242
8242
8242
8242
8242
8242
8242
8242
8242
8242
8242
8242
8242
8242
8242
8242
8242
8242
8242
8242
8242
8242
8242
8242
8242
8242
8242
8242
8242
8242
8242
8242
8242
8242
8242
8242
8242
8242
8242
8242
8242
8242
8242
8242
8242
8242
8242
8242
8242
8242
8242
8242
8242
8242
8242
8242
8242
8242
8242
8242
8242
8242
8242
8242
8242
8242
8242
8242
8242
8242
8242
